Solving original (integer) problem with strategy gdp.hull...
--- Job model.gms Start 02/16/26 19:16:08 52.2.0 d8e408be LEX-LEG x86 64bit/Linux
--- Applying:
    /package/gams/52.2/gmsprmun.txt
--- GAMS Parameters defined
    Input /local/scratch/a/sgusev/repos/k_means/data/gams_scip_gdp.hull/no_mode/2026-02-16_19-16-08/original/model.gms
    Output /local/scratch/a/sgusev/repos/k_means/data/gams_scip_gdp.hull/no_mode/2026-02-16_19-16-08/original/output.lst
    ScrDir /local/scratch/a/sgusev/repos/k_means/data/gams_scip_gdp.hull/no_mode/2026-02-16_19-16-08/original/225a/
    SysDir /package/gams/52.2/
    CurDir /local/scratch/a/sgusev/repos/k_means/data/gams_scip_gdp.hull/no_mode/2026-02-16_19-16-08/original/
    LogOption 3
    AppendLog 1
Licensee: David Bernal / SECQUOIA Research Group         G251008+0003Ac-GEN
          Purdue University, Davidson School of Chemical EngineeringDCE4838
          225a/gamslice.dat
          5a82958a-fbca-4a23
          node:66820903 mem:995 cores:48 ipport:38683 v:2                  
          Evaluation license: Not for commercial or production use
          The time-limited license stops working on : Jun 30, 2027
System information: 48 physical cores and 995 Gb physical memory detected
GAMS 52.2.0   Copyright (C) 1987-2025 GAMS Development. All rights reserved
--- Starting compilation
--- model.gms(7611) 3 Mb
--- $echo File /local/scratch/a/sgusev/repos/k_means/data/gams_scip_gdp.hull/no_mode/2026-02-16_19-16-08/original/scip.opt
--- model.gms(11075) 3 Mb
--- Starting execution: elapsed 0:00:00.037
--- model.gms(7621) 4 Mb
--- Generating MINLP model GAMS_MODEL
--- model.gms(7625) 7 Mb
---   2,334 rows  1,063 columns  5,653 non-zeroes
---   4,930 nl-code  595 nl-non-zeroes
---   85 discrete-columns
--- Range statistics (absolute non-zero finite values)
--- RHS       [min, max] : [ 5.494E-05, 1.000E+00] - Zero values observed as well
--- Bound     [min, max] : [ 1.000E+00, 1.700E+02] - Zero values observed as well
--- Matrix    [min, max] : [ 3.381E-03, 1.700E+02]
--- model.gms(7625) 5 Mb
--- Executing SCIP (Solvelink=5): elapsed 0:00:00.048

SCIP             52.2.0 d8e408be Dec 8, 2025           LEG x86 64bit/Linux    
SCIP version 9.2.4 (a94f778ac8)
Copyright (c) 2002-2025 Zuse Institute Berlin (ZIB)

External libraries: 
  CPLEX 22.1.2.0       Linear Programming Solver developed by IBM (www.cplex.com)
  CppAD 20180000.0     Algorithmic Differentiation of C++ algorithms developed by B. Bell (github.com/coin-or/CppAD)
  PaPILO 2.4.4         parallel presolve for integer and linear optimization (github.com/scipopt/papilo) (built with TBB) [GitHash: 7c826d50]
  Nauty 2.8.9          Computing Graph Automorphism Groups by Brendan D. McKay (users.cecs.anu.edu.au/~bdm/nauty)
  sassy 1.1            Symmetry preprocessor by Markus Anders (github.com/markusa4/sassy)
  Ipopt 3.14.19        Interior Point Optimizer developed by A. Waechter et.al. (github.com/coin-or/Ipopt)

reading option file /local/scratch/a/sgusev/repos/k_means/data/gams_scip_gdp.hull/no_mode/2026-02-16_19-16-08/original/scip.opt
non-default parameter settings:
limits/time = 300
limits/gap = 1e-06
limits/absgap = 1e-10
lp/threads = 1
misc/printreason = FALSE
numerics/dualfeastol = 1e-06
parallel/maxnthreads = 1
nlpi/ipopt/linear_solver = "ma27"
nlpi/ipopt/linear_system_scaling = "mc19"

original problem has 1062 variables (85 bin, 0 int, 977 cont) and 2333 constraints

all 1 solutions given by solution candidate storage are infeasible

presolving:
(round 1, fast)       17 del vars, 0 del conss, 0 add conss, 0 chg bounds, 0 chg sides, 0 chg coeffs, 0 upgd conss, 0 impls, 17 clqs
(round 2, fast)       17 del vars, 0 del conss, 0 add conss, 0 chg bounds, 17 chg sides, 0 chg coeffs, 0 upgd conss, 0 impls, 17 clqs
(round 3, exhaustive) 17 del vars, 0 del conss, 0 add conss, 0 chg bounds, 17 chg sides, 0 chg coeffs, 1802 upgd conss, 0 impls, 17 clqs
   (0.2s) probing cycle finished: starting next cycle
   (0.2s) symmetry computation started: requiring (bin +, int +, cont +), (fixed: bin -, int -, cont -)
   (0.2s) no symmetry present (symcode time: 0.00)
presolving (4 rounds: 4 fast, 2 medium, 2 exhaustive):
 17 deleted vars, 0 deleted constraints, 0 added constraints, 0 tightened bounds, 0 added holes, 17 changed sides, 0 changed coefficients
 5525 implications, 17 cliques
presolved problem has 1045 variables (85 bin, 0 int, 0 impl, 960 cont) and 2333 constraints
   1785 constraints of type <varbound>
     17 constraints of type <setppc>
    446 constraints of type <linear>
     85 constraints of type <nonlinear>
Presolving Time: 0.18

 time | node  | left  |LP iter|LP it/n|mem/heur|mdpt |vars |cons |rows |cuts |sepa|confs|strbr|  dualbound   | primalbound  |  gap   | compl. 
  0.4s|     1 |     0 |  2147 |     - |    39M |   0 |3680 |2333 |5768 |   0 |  0 |   0 |   0 | 0.000000e+00 |      --      |    Inf | unknown
p 0.5s|     1 |     0 |  2222 |     - |  clique|   0 |3680 |2333 |5768 |   0 |  0 |   0 |   0 | 0.000000e+00 | 3.123616e+01 |    Inf | unknown
  0.6s|     1 |     0 |  2658 |     - |    42M |   0 |3680 |2333 |5893 | 125 |  1 |   0 |   0 | 0.000000e+00 | 3.123616e+01 |    Inf | unknown
  0.6s|     1 |     0 |  2658 |     - |    43M |   0 |3680 |2333 |5876 | 125 |  1 |   0 |   0 | 0.000000e+00 | 3.123616e+01 |    Inf | unknown
  0.7s|     1 |     0 |  2953 |     - |    44M |   0 |3680 |2333 |5987 | 236 |  2 |   0 |   0 | 0.000000e+00 | 3.123616e+01 |    Inf | unknown
  0.7s|     1 |     0 |  3245 |     - |    44M |   0 |3680 |2333 |6096 | 345 |  3 |   0 |   0 | 0.000000e+00 | 3.123616e+01 |    Inf | unknown
  0.8s|     1 |     0 |  3481 |     - |    45M |   0 |3680 |2333 |6185 | 434 |  4 |   0 |   0 | 0.000000e+00 | 3.123616e+01 |    Inf | unknown
  0.9s|     1 |     0 |  3677 |     - |    46M |   0 |3680 |2333 |6271 | 520 |  5 |   0 |   0 | 0.000000e+00 | 3.123616e+01 |    Inf | unknown
  0.9s|     1 |     0 |  3847 |     - |    46M |   0 |3680 |2333 |6378 | 627 |  6 |   0 |   0 | 0.000000e+00 | 3.123616e+01 |    Inf | unknown
  1.0s|     1 |     0 |  4013 |     - |    47M |   0 |3680 |2333 |6468 | 717 |  7 |   0 |   0 | 0.000000e+00 | 3.123616e+01 |    Inf | unknown
  1.1s|     1 |     0 |  4208 |     - |    48M |   0 |3680 |2333 |6555 | 804 |  8 |   0 |   0 | 0.000000e+00 | 3.123616e+01 |    Inf | unknown
  1.1s|     1 |     0 |  4411 |     - |    49M |   0 |3680 |2333 |6641 | 890 |  9 |   0 |   0 | 0.000000e+00 | 3.123616e+01 |    Inf | unknown
  1.1s|     1 |     0 |  4654 |     - |    49M |   0 |3680 |2333 |6719 | 968 | 10 |   0 |   0 | 0.000000e+00 | 3.123616e+01 |    Inf | unknown
  1.2s|     1 |     0 |  4838 |     - |    50M |   0 |3680 |2333 |6825 |1074 | 11 |   0 |   0 | 0.000000e+00 | 3.123616e+01 |    Inf | unknown
 10.9s|     1 |     0 | 70060 |     - |    51M |   0 |3680 |2316 |6825 |1074 | 11 |   0 |   0 | 0.000000e+00 | 3.123616e+01 |    Inf | unknown
 time | node  | left  |LP iter|LP it/n|mem/heur|mdpt |vars |cons |rows |cuts |sepa|confs|strbr|  dualbound   | primalbound  |  gap   | compl. 
 11.0s|     1 |     0 | 70200 |     - |    52M |   0 |3680 |2316 |6901 |1150 | 12 |   0 |   0 | 0.000000e+00 | 3.123616e+01 |    Inf | unknown
 11.0s|     1 |     0 | 70357 |     - |    52M |   0 |3680 |2316 |6974 |1223 | 13 |   0 |   0 | 0.000000e+00 | 3.123616e+01 |    Inf | unknown
 11.1s|     1 |     0 | 70576 |     - |    53M |   0 |3680 |2316 |7042 |1291 | 14 |   0 |   0 | 0.000000e+00 | 3.123616e+01 |    Inf | unknown
 11.1s|     1 |     0 | 70713 |     - |    54M |   0 |3680 |2316 |7104 |1353 | 15 |   0 |   0 | 0.000000e+00 | 3.123616e+01 |    Inf | unknown
 11.2s|     1 |     0 | 70825 |     - |    55M |   0 |3680 |2316 |3977 |1412 | 16 |   0 |   0 | 0.000000e+00 | 3.123616e+01 |    Inf | unknown
 11.2s|     1 |     0 | 70895 |     - |    55M |   0 |3680 |2316 |4034 |1469 | 17 |   0 |   0 | 0.000000e+00 | 3.123616e+01 |    Inf | unknown
 11.3s|     1 |     0 | 70992 |     - |    56M |   0 |3680 |2316 |4078 |1513 | 18 |   0 |   0 | 0.000000e+00 | 3.123616e+01 |    Inf | unknown
 11.3s|     1 |     0 | 71124 |     - |    56M |   0 |3680 |2316 |4135 |1570 | 19 |   0 |   0 | 0.000000e+00 | 3.123616e+01 |    Inf | unknown
 11.3s|     1 |     0 | 71253 |     - |    56M |   0 |3680 |2316 |4195 |1630 | 20 |   0 |   0 | 0.000000e+00 | 3.123616e+01 |    Inf | unknown
 11.4s|     1 |     0 | 71391 |     - |    56M |   0 |3680 |2316 |4257 |1692 | 21 |   0 |   0 | 0.000000e+00 | 3.123616e+01 |    Inf | unknown
 11.4s|     1 |     0 | 71493 |     - |    56M |   0 |3680 |2316 |3844 |1754 | 22 |   0 |   0 | 0.000000e+00 | 3.123616e+01 |    Inf | unknown
L17.0s|     1 |     0 | 71641 |     - |    rens|   0 |3680 |2316 |3844 |1754 | 22 |   0 |   0 | 0.000000e+00 | 2.084159e+01 |    Inf | unknown
 17.4s|     1 |     0 | 71641 |     - |    62M |   0 |3680 |2316 |3844 |1754 | 22 |   0 |   0 | 0.000000e+00 | 2.084159e+01 |    Inf | unknown
 17.4s|     1 |     0 | 71737 |     - |    62M |   0 |3680 |2316 |3903 |1813 | 23 |   0 |   0 | 0.000000e+00 | 2.084159e+01 |    Inf | unknown
 17.4s|     1 |     0 | 71771 |     - |    62M |   0 |3680 |2316 |3921 |1831 | 24 |   0 |   0 | 0.000000e+00 | 2.084159e+01 |    Inf | unknown
 time | node  | left  |LP iter|LP it/n|mem/heur|mdpt |vars |cons |rows |cuts |sepa|confs|strbr|  dualbound   | primalbound  |  gap   | compl. 
 17.4s|     1 |     0 | 71775 |     - |    62M |   0 |3680 |2316 |3921 |1831 | 24 |   0 |   1 | 0.000000e+00 | 2.084159e+01 |    Inf | unknown
 17.5s|     1 |     0 | 71898 |     - |    62M |   0 |3680 |2316 |3978 |1888 | 25 |   0 |   1 | 0.000000e+00 | 2.084159e+01 |    Inf | unknown
 17.5s|     1 |     0 | 71927 |     - |    62M |   0 |3680 |2316 |3670 |1893 | 26 |   0 |   1 | 0.000000e+00 | 2.084159e+01 |    Inf | unknown
 17.5s|     1 |     0 | 71934 |     - |    62M |   0 |3680 |2316 |3670 |1893 | 26 |   0 |   2 | 0.000000e+00 | 2.084159e+01 |    Inf | unknown
 17.5s|     1 |     0 | 72035 |     - |    62M |   0 |3680 |2316 |3732 |1955 | 27 |   0 |   2 | 0.000000e+00 | 2.084159e+01 |    Inf | unknown
 17.5s|     1 |     0 | 72062 |     - |    62M |   0 |3680 |2316 |3745 |1968 | 28 |   0 |   2 | 0.000000e+00 | 2.084159e+01 |    Inf | unknown
 17.5s|     1 |     0 | 72072 |     - |    63M |   0 |3680 |2316 |3745 |1968 | 28 |   0 |   3 | 0.000000e+00 | 2.084159e+01 |    Inf | unknown
 17.6s|     1 |     0 | 72210 |     - |    63M |   0 |3680 |2316 |3819 |2042 | 29 |   0 |   3 | 0.000000e+00 | 2.084159e+01 |    Inf | unknown
 17.6s|     1 |     0 | 72229 |     - |    63M |   0 |3680 |2316 |3534 |2051 | 30 |   0 |   3 | 0.000000e+00 | 2.084159e+01 |    Inf | unknown
 17.6s|     1 |     0 | 72230 |     - |    63M |   0 |3680 |2316 |3534 |2051 | 30 |   0 |   4 | 0.000000e+00 | 2.084159e+01 |    Inf | unknown
 17.6s|     1 |     0 | 72361 |     - |    63M |   0 |3680 |2316 |3611 |2128 | 31 |   0 |   4 | 0.000000e+00 | 2.084159e+01 |    Inf | unknown
 17.6s|     1 |     0 | 72418 |     - |    63M |   0 |3680 |2316 |3643 |2160 | 32 |   0 |   4 | 0.000000e+00 | 2.084159e+01 |    Inf | unknown
 17.7s|     1 |     0 | 72419 |     - |    63M |   0 |3680 |2316 |3643 |2160 | 32 |   0 |   5 | 0.000000e+00 | 2.084159e+01 |    Inf | unknown
 17.7s|     1 |     0 | 72536 |     - |    63M |   0 |3680 |2316 |3714 |2231 | 33 |   0 |   5 | 0.000000e+00 | 2.084159e+01 |    Inf | unknown
 17.7s|     1 |     0 | 72566 |     - |    63M |   0 |3680 |2316 |3556 |2246 | 34 |   0 |   5 | 0.000000e+00 | 2.084159e+01 |    Inf | unknown
 time | node  | left  |LP iter|LP it/n|mem/heur|mdpt |vars |cons |rows |cuts |sepa|confs|strbr|  dualbound   | primalbound  |  gap   | compl. 
 17.7s|     1 |     0 | 72577 |     - |    63M |   0 |3680 |2316 |3556 |2246 | 34 |   0 |   6 | 0.000000e+00 | 2.084159e+01 |    Inf | unknown
 17.7s|     1 |     0 | 72693 |     - |    63M |   0 |3680 |2316 |3630 |2320 | 35 |   0 |   6 | 0.000000e+00 | 2.084159e+01 |    Inf | unknown
 17.7s|     1 |     0 | 72716 |     - |    63M |   0 |3680 |2316 |3642 |2332 | 36 |   0 |   6 | 0.000000e+00 | 2.084159e+01 |    Inf | unknown
 17.8s|     1 |     0 | 72720 |     - |    63M |   0 |3680 |2316 |3642 |2332 | 36 |   0 |   7 | 0.000000e+00 | 2.084159e+01 |    Inf | unknown
 17.8s|     1 |     0 | 72826 |     - |    63M |   0 |3680 |2316 |3725 |2415 | 37 |   0 |   7 | 0.000000e+00 | 2.084159e+01 |    Inf | unknown
 17.8s|     1 |     0 | 72835 |     - |    63M |   0 |3680 |2316 |3567 |2422 | 38 |   0 |   7 | 0.000000e+00 | 2.084159e+01 |    Inf | unknown
 17.8s|     1 |     0 | 72837 |     - |    63M |   0 |3680 |2316 |3567 |2422 | 38 |   0 |   8 | 0.000000e+00 | 2.084159e+01 |    Inf | unknown
 17.8s|     1 |     0 | 72948 |     - |    63M |   0 |3680 |2316 |3647 |2502 | 39 |   0 |   8 | 0.000000e+00 | 2.084159e+01 |    Inf | unknown
 17.8s|     1 |     0 | 72976 |     - |    63M |   0 |3680 |2316 |3654 |2509 | 40 |   0 |   8 | 0.000000e+00 | 2.084159e+01 |    Inf | unknown
 17.8s|     1 |     0 | 72996 |     - |    63M |   0 |3680 |2316 |3654 |2509 | 40 |   0 |   9 | 0.000000e+00 | 2.084159e+01 |    Inf | unknown
 17.9s|     1 |     0 | 73118 |     - |    63M |   0 |3680 |2316 |3740 |2595 | 41 |   0 |   9 | 0.000000e+00 | 2.084159e+01 |    Inf | unknown
 17.9s|     1 |     0 | 73133 |     - |    63M |   0 |3680 |2316 |3575 |2604 | 42 |   0 |   9 | 0.000000e+00 | 2.084159e+01 |    Inf | unknown
 17.9s|     1 |     0 | 73135 |     - |    63M |   0 |3680 |2316 |3575 |2604 | 42 |   0 |  10 | 0.000000e+00 | 2.084159e+01 |    Inf | unknown
 17.9s|     1 |     0 | 73241 |     - |    63M |   0 |3680 |2316 |3656 |2685 | 43 |   0 |  10 | 0.000000e+00 | 2.084159e+01 |    Inf | unknown
 17.9s|     1 |     0 | 73275 |     - |    63M |   0 |3680 |2316 |3667 |2696 | 44 |   0 |  10 | 0.000000e+00 | 2.084159e+01 |    Inf | unknown
 time | node  | left  |LP iter|LP it/n|mem/heur|mdpt |vars |cons |rows |cuts |sepa|confs|strbr|  dualbound   | primalbound  |  gap   | compl. 
 17.9s|     1 |     0 | 73329 |     - |    63M |   0 |3680 |2316 |3667 |2696 | 44 |   0 |  11 | 0.000000e+00 | 2.084159e+01 |    Inf | unknown
 18.0s|     1 |     0 | 73512 |     - |    63M |   0 |3680 |2316 |3737 |2766 | 45 |   0 |  11 | 0.000000e+00 | 2.084159e+01 |    Inf | unknown
 18.0s|     1 |     0 | 73599 |     - |    63M |   0 |3680 |2316 |3586 |2783 | 46 |   0 |  11 | 0.000000e+00 | 2.084159e+01 |    Inf | unknown
 18.0s|     1 |     0 | 73601 |     - |    63M |   0 |3680 |2316 |3586 |2783 | 46 |   0 |  12 | 0.000000e+00 | 2.084159e+01 |    Inf | unknown
 18.0s|     1 |     0 | 73760 |     - |    63M |   0 |3680 |2316 |3677 |2874 | 47 |   0 |  12 | 0.000000e+00 | 2.084159e+01 |    Inf | unknown
 18.0s|     1 |     0 | 73794 |     - |    63M |   0 |3680 |2316 |3695 |2892 | 48 |   0 |  12 | 0.000000e+00 | 2.084159e+01 |    Inf | unknown
 18.0s|     1 |     0 | 73824 |     - |    63M |   0 |3680 |2316 |3695 |2892 | 48 |   0 |  13 | 0.000000e+00 | 2.084159e+01 |    Inf | unknown
 18.1s|     1 |     0 | 73936 |     - |    63M |   0 |3680 |2316 |3768 |2965 | 49 |   0 |  13 | 0.000000e+00 | 2.084159e+01 |    Inf | unknown
 18.1s|     1 |     0 | 73976 |     - |    63M |   0 |3680 |2316 |3570 |2972 | 50 |   0 |  13 | 0.000000e+00 | 2.084159e+01 |    Inf | unknown
 18.1s|     1 |     0 | 73989 |     - |    63M |   0 |3680 |2316 |3570 |2972 | 50 |   0 |  14 | 0.000000e+00 | 2.084159e+01 |    Inf | unknown
 18.1s|     1 |     0 | 74133 |     - |    63M |   0 |3680 |2316 |3647 |3049 | 51 |   0 |  14 | 0.000000e+00 | 2.084159e+01 |    Inf | unknown
 18.1s|     1 |     0 | 74194 |     - |    63M |   0 |3680 |2316 |3663 |3065 | 52 |   0 |  14 | 0.000000e+00 | 2.084159e+01 |    Inf | unknown
 18.1s|     1 |     0 | 74197 |     - |    64M |   0 |3680 |2316 |3663 |3065 | 52 |   0 |  15 | 0.000000e+00 | 2.084159e+01 |    Inf | unknown
 18.2s|     1 |     0 | 74326 |     - |    64M |   0 |3680 |2316 |3734 |3136 | 53 |   0 |  15 | 0.000000e+00 | 2.084159e+01 |    Inf | unknown
 18.2s|     1 |     0 | 74350 |     - |    64M |   0 |3680 |2316 |3563 |3151 | 54 |   0 |  15 | 0.000000e+00 | 2.084159e+01 |    Inf | unknown
 time | node  | left  |LP iter|LP it/n|mem/heur|mdpt |vars |cons |rows |cuts |sepa|confs|strbr|  dualbound   | primalbound  |  gap   | compl. 
 18.2s|     1 |     0 | 74350 |     - |    64M |   0 |3680 |2316 |3563 |3151 | 54 |   0 |  16 | 0.000000e+00 | 2.084159e+01 |    Inf | unknown
 18.2s|     1 |     0 | 74472 |     - |    64M |   0 |3680 |2316 |3620 |3208 | 55 |   0 |  16 | 0.000000e+00 | 2.084159e+01 |    Inf | unknown
 18.2s|     1 |     0 | 74491 |     - |    64M |   0 |3680 |2316 |3626 |3214 | 56 |   0 |  16 | 0.000000e+00 | 2.084159e+01 |    Inf | unknown
 18.2s|     1 |     0 | 74502 |     - |    64M |   0 |3680 |2316 |3626 |3214 | 56 |   0 |  17 | 0.000000e+00 | 2.084159e+01 |    Inf | unknown
 18.2s|     1 |     0 | 74607 |     - |    64M |   0 |3680 |2316 |3693 |3281 | 57 |   0 |  17 | 0.000000e+00 | 2.084159e+01 |    Inf | unknown
 18.3s|     1 |     0 | 74626 |     - |    64M |   0 |3680 |2316 |3700 |3288 | 58 |   0 |  17 | 0.000000e+00 | 2.084159e+01 |    Inf | unknown
 18.3s|     1 |     0 | 74664 |     - |    64M |   0 |3680 |2316 |3536 |3288 | 58 |   0 |  18 | 0.000000e+00 | 2.084159e+01 |    Inf | unknown
 18.3s|     1 |     0 | 74793 |     - |    64M |   0 |3680 |2316 |3610 |3362 | 59 |   0 |  18 | 0.000000e+00 | 2.084159e+01 |    Inf | unknown
 18.3s|     1 |     0 | 74821 |     - |    64M |   0 |3680 |2316 |3627 |3379 | 60 |   0 |  18 | 0.000000e+00 | 2.084159e+01 |    Inf | unknown
 18.3s|     1 |     0 | 74869 |     - |    64M |   0 |3680 |2316 |3627 |3379 | 60 |   0 |  19 | 0.000000e+00 | 2.084159e+01 |    Inf | unknown
 18.3s|     1 |     0 | 74990 |     - |    64M |   0 |3680 |2316 |3707 |3459 | 61 |   0 |  19 | 0.000000e+00 | 2.084159e+01 |    Inf | unknown
 18.4s|     1 |     0 | 75001 |     - |    64M |   0 |3680 |2316 |3716 |3468 | 62 |   0 |  19 | 0.000000e+00 | 2.084159e+01 |    Inf | unknown
 18.4s|     1 |     0 | 75017 |     - |    64M |   0 |3680 |2316 |3587 |3468 | 62 |   0 |  20 | 0.000000e+00 | 2.084159e+01 |    Inf | unknown
 18.4s|     1 |     0 | 75128 |     - |    64M |   0 |3680 |2316 |3661 |3542 | 63 |   0 |  20 | 0.000000e+00 | 2.084159e+01 |    Inf | unknown
 18.4s|     1 |     0 | 75146 |     - |    64M |   0 |3680 |2316 |3671 |3552 | 64 |   0 |  20 | 0.000000e+00 | 2.084159e+01 |    Inf | unknown
 time | node  | left  |LP iter|LP it/n|mem/heur|mdpt |vars |cons |rows |cuts |sepa|confs|strbr|  dualbound   | primalbound  |  gap   | compl. 
 18.4s|     1 |     0 | 75154 |     - |    64M |   0 |3680 |2316 |3671 |3552 | 64 |   0 |  21 | 0.000000e+00 | 2.084159e+01 |    Inf | unknown
 18.4s|     1 |     0 | 75257 |     - |    64M |   0 |3680 |2316 |3752 |3633 | 65 |   0 |  21 | 0.000000e+00 | 2.084159e+01 |    Inf | unknown
 18.5s|     1 |     0 | 75280 |     - |    64M |   0 |3680 |2316 |3756 |3637 | 66 |   0 |  21 | 0.000000e+00 | 2.084159e+01 |    Inf | unknown
 18.5s|     1 |     0 | 75330 |     - |    64M |   0 |3680 |2316 |3604 |3637 | 66 |   0 |  22 | 0.000000e+00 | 2.084159e+01 |    Inf | unknown
 18.5s|     1 |     0 | 75407 |     - |    64M |   0 |3680 |2316 |3672 |3705 | 67 |   0 |  22 | 0.000000e+00 | 2.084159e+01 |    Inf | unknown
 18.5s|     1 |     0 | 75433 |     - |    64M |   0 |3680 |2316 |3675 |3708 | 68 |   0 |  22 | 0.000000e+00 | 2.084159e+01 |    Inf | unknown
 18.5s|     1 |     0 | 75437 |     - |    64M |   0 |3680 |2316 |3675 |3708 | 68 |   0 |  23 | 0.000000e+00 | 2.084159e+01 |    Inf | unknown
 18.5s|     1 |     0 | 75497 |     - |    64M |   0 |3680 |2316 |3732 |3765 | 69 |   0 |  23 | 0.000000e+00 | 2.084159e+01 |    Inf | unknown
 18.5s|     1 |     0 | 75498 |     - |    64M |   0 |3680 |2316 |3733 |3766 | 70 |   0 |  23 | 0.000000e+00 | 2.084159e+01 |    Inf | unknown
 18.6s|     1 |     0 | 75498 |     - |    64M |   0 |3680 |2316 |3733 |3766 | 70 |   0 |  24 | 0.000000e+00 | 2.084159e+01 |    Inf | unknown
 18.6s|     1 |     0 | 75561 |     - |    64M |   0 |3680 |2316 |3642 |3824 | 71 |   0 |  24 | 0.000000e+00 | 2.084159e+01 |    Inf | unknown
 18.6s|     1 |     0 | 75565 |     - |    64M |   0 |3680 |2316 |3644 |3826 | 72 |   0 |  24 | 0.000000e+00 | 2.084159e+01 |    Inf | unknown
 18.6s|     1 |     0 | 75572 |     - |    64M |   0 |3680 |2316 |3644 |3826 | 72 |   0 |  25 | 0.000000e+00 | 2.084159e+01 |    Inf | unknown
 18.6s|     1 |     0 | 75608 |     - |    64M |   0 |3680 |2316 |3706 |3888 | 73 |   0 |  25 | 0.000000e+00 | 2.084159e+01 |    Inf | unknown
 18.6s|     1 |     0 | 75631 |     - |    64M |   0 |3680 |2316 |3707 |3889 | 74 |   0 |  25 | 0.000000e+00 | 2.084159e+01 |    Inf | unknown
 time | node  | left  |LP iter|LP it/n|mem/heur|mdpt |vars |cons |rows |cuts |sepa|confs|strbr|  dualbound   | primalbound  |  gap   | compl. 
 18.6s|     1 |     0 | 75634 |     - |    64M |   0 |3680 |2316 |3707 |3889 | 74 |   0 |  26 | 0.000000e+00 | 2.084159e+01 |    Inf | unknown
 18.7s|     1 |     0 | 75672 |     - |    64M |   0 |3680 |2316 |3642 |3954 | 75 |   0 |  26 | 0.000000e+00 | 2.084159e+01 |    Inf | unknown
 18.7s|     1 |     2 | 75672 |     - |    64M |   0 |3680 |2316 |3642 |3954 | 76 |   0 |  26 | 0.000000e+00 | 2.084159e+01 |    Inf | unknown
d20.8s|    29 |    30 | 88177 |2814.6 |nlpdivin|  11 |3680 |2316 |4114 |   0 |  3 |   0 |  26 | 0.000000e+00 | 1.818637e+01 |    Inf | unknown
 25.6s|   100 |   101 |117990 |1097.2 |    85M |  15 |3680 |2316 |4140 |  27k|  2 |   0 |  26 | 0.000000e+00 | 1.818637e+01 |    Inf | unknown
 32.7s|   200 |   201 |163211 | 773.1 |   107M |  15 |3680 |2316 |4086 |  50k|  3 |   0 |  26 | 0.000000e+00 | 1.818637e+01 |    Inf | unknown
d37.6s|   264 |   265 |185832 | 671.0 |nlpdivin|  21 |3680 |2316 |4191 |   0 |  3 |   0 |  26 | 0.000000e+00 | 1.729211e+01 |    Inf | unknown
 40.6s|   300 |   301 |211459 | 675.9 |   122M |  21 |3680 |2316 |4445 |  70k|  8 |   0 |  26 | 0.000000e+00 | 1.729211e+01 |    Inf | unknown
 46.9s|   400 |   401 |254820 | 615.2 |   131M |  21 |3680 |2316 |4167 |  92k|  2 |   0 |  26 | 0.000000e+00 | 1.729211e+01 |    Inf | unknown
 53.2s|   500 |   501 |299431 | 581.3 |   144M |  22 |3680 |2316 |3960 | 114k|  2 |   0 |  26 | 0.000000e+00 | 1.729211e+01 |    Inf | unknown
 59.8s|   600 |   601 |342041 | 555.4 |   158M |  22 |3680 |2316 |3822 | 136k|  2 |   0 |  26 | 0.000000e+00 | 1.729211e+01 |    Inf | unknown
 65.6s|   700 |   701 |376237 | 524.8 |   167M |  23 |3680 |2316 |4084 | 156k|  2 |   0 |  26 | 0.000000e+00 | 1.729211e+01 |    Inf | unknown
 71.8s|   800 |   801 |410677 | 502.3 |   174M |  24 |3680 |2316 |4643 | 175k|  2 |   0 |  26 | 0.000000e+00 | 1.729211e+01 |    Inf | unknown
 78.2s|   900 |   901 |450093 | 490.2 |   183M |  24 |3680 |2316 |4576 | 197k|  9 |   0 |  26 | 0.000000e+00 | 1.729211e+01 |    Inf | unknown
 86.1s|  1000 |  1001 |498136 | 489.3 |   190M |  32 |3680 |2316 |5039 | 217k| 10 |   0 |  26 | 0.000000e+00 | 1.729211e+01 |    Inf | unknown
 time | node  | left  |LP iter|LP it/n|mem/heur|mdpt |vars |cons |rows |cuts |sepa|confs|strbr|  dualbound   | primalbound  |  gap   | compl. 
 92.0s|  1100 |  1099 |537136 | 480.2 |   199M |  33 |3680 |2316 |3713 | 234k|  2 |   0 |  26 | 0.000000e+00 | 1.729211e+01 |    Inf | unknown
 98.6s|  1200 |  1199 |581870 | 477.5 |   210M |  33 |3680 |2316 |4403 | 254k|  3 |   0 |  26 | 0.000000e+00 | 1.729211e+01 |    Inf | unknown
  105s|  1300 |  1299 |621196 | 471.0 |   220M |  33 |3680 |2316 |4595 | 274k|  9 |   0 |  26 | 0.000000e+00 | 1.729211e+01 |    Inf | unknown
L 107s|  1329 |  1328 |633134 | 469.7 |    gins|  33 |3680 |2316 |4691 | 281k| 10 |   0 |  26 | 0.000000e+00 | 1.655412e+01 |    Inf | unknown
  112s|  1400 |  1399 |656303 | 462.4 |   228M |  33 |3680 |2316 |3863 | 293k|  2 |   0 |  28 | 0.000000e+00 | 1.655412e+01 |    Inf | unknown
L 114s|  1429 |  1428 |669676 | 462.4 |    gins|  33 |3680 |2316 |4352 | 299k|  8 |   0 |  28 | 0.000000e+00 | 1.530046e+01 |    Inf | unknown
  119s|  1500 |  1499 |705320 | 464.3 |   240M |  33 |3680 |2316 |4226 | 313k|  2 |   0 |  28 | 0.000000e+00 | 1.530046e+01 |    Inf | unknown
L 122s|  1533 |  1532 |720514 | 464.2 |    gins|  33 |3680 |2316 |4335 | 321k| 11 |   0 |  28 | 0.000000e+00 | 1.431630e+01 |    Inf | unknown
  126s|  1600 |  1599 |750324 | 463.4 |   257M |  33 |3680 |2316 |4371 | 335k| 11 |   0 |  28 | 0.000000e+00 | 1.431630e+01 |    Inf | unknown
  133s|  1700 |  1699 |783197 | 455.5 |   268M |  33 |3680 |2316 |3997 | 357k|  2 |   0 |  28 | 0.000000e+00 | 1.431630e+01 |    Inf | unknown
  140s|  1800 |  1799 |831004 | 456.7 |   277M |  33 |3680 |2316 |4107 | 376k|  2 |   0 |  28 | 0.000000e+00 | 1.431630e+01 |    Inf | unknown
  147s|  1900 |  1899 |875928 | 456.3 |   286M |  33 |3680 |2316 |4585 | 398k| 12 |   0 |  28 | 0.000000e+00 | 1.431630e+01 |    Inf | unknown
  154s|  2000 |  1999 |926385 | 458.7 |   292M |  33 |3680 |2316 |4656 | 418k|  9 |   0 |  28 | 0.000000e+00 | 1.431630e+01 |    Inf | unknown
  161s|  2100 |  2099 |966660 | 456.1 |   304M |  33 |3680 |2316 |4197 | 439k|  2 |   0 |  28 | 0.000000e+00 | 1.431630e+01 |    Inf | unknown
  168s|  2200 |  2199 |  1005k| 453.0 |   310M |  33 |3680 |2316 |4511 | 462k|  9 |   0 |  28 | 0.000000e+00 | 1.431630e+01 |    Inf | unknown
 time | node  | left  |LP iter|LP it/n|mem/heur|mdpt |vars |cons |rows |cuts |sepa|confs|strbr|  dualbound   | primalbound  |  gap   | compl. 
  175s|  2300 |  2299 |  1056k| 455.4 |   315M |  33 |3680 |2316 |4315 | 482k|  7 |   0 |  28 | 0.000000e+00 | 1.431630e+01 |    Inf | unknown
  182s|  2400 |  2399 |  1092k| 451.3 |   325M |  33 |3680 |2316 |4510 | 503k|  8 |   0 |  28 | 0.000000e+00 | 1.431630e+01 |    Inf | unknown
  188s|  2500 |  2499 |  1131k| 449.1 |   335M |  33 |3680 |2316 |4487 | 521k| 12 |   0 |  28 | 0.000000e+00 | 1.431630e+01 |    Inf | unknown
  195s|  2600 |  2599 |  1161k| 443.5 |   340M |  33 |3680 |2316 |4377 | 538k|  2 |   0 |  28 | 0.000000e+00 | 1.431630e+01 |    Inf | unknown
  201s|  2700 |  2699 |  1196k| 439.8 |   345M |  33 |3680 |2316 |4608 | 554k|  9 |   0 |  28 | 0.000000e+00 | 1.431630e+01 |    Inf | unknown
  208s|  2800 |  2797 |  1246k| 442.0 |   352M |  33 |3680 |2316 |4566 | 572k|  9 |   0 |  40 | 0.000000e+00 | 1.431630e+01 |    Inf | unknown
  216s|  2900 |  2897 |  1289k| 441.7 |   358M |  33 |3680 |2316 |4434 | 590k|  3 |   0 |  43 | 0.000000e+00 | 1.431630e+01 |    Inf | unknown
  223s|  3000 |  2997 |  1324k| 438.4 |   367M |  33 |3680 |2316 |4695 | 606k|  9 |   0 |  45 | 0.000000e+00 | 1.431630e+01 |    Inf | unknown
  230s|  3100 |  3097 |  1360k| 436.0 |   370M |  33 |3680 |2316 |4408 | 623k|  2 |   0 |  45 | 0.000000e+00 | 1.431630e+01 |    Inf | unknown
  237s|  3200 |  3197 |  1403k| 435.8 |   380M |  33 |3680 |2316 |4634 | 643k| 10 |   0 |  45 | 0.000000e+00 | 1.431630e+01 |    Inf | unknown
L 240s|  3233 |  3227 |  1413k| 434.5 |    gins|  33 |3680 |2316 |4248 | 649k|  4 |   0 |  45 | 0.000000e+00 | 1.371791e+01 |    Inf | unknown
  245s|  3300 |  3294 |  1442k| 434.5 |   388M |  33 |3680 |2316 |5010 | 663k| 10 |   0 |  45 | 0.000000e+00 | 1.371791e+01 |    Inf | unknown
  252s|  3400 |  3394 |  1474k| 431.0 |   392M |  33 |3680 |2316 |4386 | 683k|  6 |   0 |  45 | 0.000000e+00 | 1.371791e+01 |    Inf | unknown
  259s|  3500 |  3494 |  1511k| 429.4 |   400M |  33 |3680 |2316 |4522 | 703k|  9 |   0 |  45 | 0.000000e+00 | 1.371791e+01 |    Inf | unknown
  266s|  3600 |  3594 |  1550k| 428.2 |   407M |  33 |3680 |2316 |4383 | 721k|  2 |   0 |  45 | 0.000000e+00 | 1.371791e+01 |    Inf | unknown
 time | node  | left  |LP iter|LP it/n|mem/heur|mdpt |vars |cons |rows |cuts |sepa|confs|strbr|  dualbound   | primalbound  |  gap   | compl. 
  273s|  3700 |  3694 |  1587k| 426.7 |   414M |  33 |3680 |2316 |4513 | 741k|  8 |   0 |  45 | 0.000000e+00 | 1.371791e+01 |    Inf | unknown
  280s|  3800 |  3794 |  1622k| 424.6 |   423M |  33 |3680 |2316 |4408 | 758k|  2 |   0 |  47 | 0.000000e+00 | 1.371791e+01 |    Inf | unknown
  294s|  3900 |  3894 |  1657k| 422.7 |   427M |  33 |3680 |2316 |4767 | 773k|  9 |   0 |  49 | 0.000000e+00 | 1.371791e+01 |    Inf | unknown

SCIP Status        : solving was interrupted [time limit reached]
Solving Time (sec) : 300.01
Solving Nodes      : 3988
Primal Bound       : +1.37179061192202e+01 (14 solutions)
Dual Bound         : +0.00000000000000e+00
Gap                : infinite


--- Reading solution for model GAMS_MODEL
***
*** Solver did not provide marginals for model GAMS_MODEL
***
--- Executing after solve: elapsed 0:05:00.373
--- model.gms(7628) 5 Mb
--- model.gms(11075) 7 Mb
--- Putfile results /local/scratch/a/sgusev/repos/k_means/data/gams_scip_gdp.hull/no_mode/2026-02-16_19-16-08/original/results.dat
--- Putfile statresults /local/scratch/a/sgusev/repos/k_means/data/gams_scip_gdp.hull/no_mode/2026-02-16_19-16-08/original/resultsstat.dat
*** Status: Normal completion
--- Job model.gms Stop 02/16/26 19:21:09 elapsed 0:05:00.384
Original problem solved. Time taken: 301.19560980796814 seconds
Original objective value: 13.717906119220201
